PointerNetwork/Ptr_Net_TSPTW/benchmark/n20w60/n20w60.002.txt.solution
1 20 5 19 2 9 13 16 8 11 18 4 6 10 12 7 15 21 17 14 3 
244
